solution status: optimal solution found
objective value:                     138467.240785703
d11(0,0)                                            1 	(obj:0)
d11(1,1)                                            1 	(obj:0)
d11(1,2)                                            1 	(obj:0)
d11(1,3)                                            1 	(obj:0)
d11(2,7)                                            1 	(obj:0)
d11(2,10)                                           1 	(obj:0)
d11(3,13)                                           1 	(obj:0)
d11(3,14)                                           1 	(obj:0)
d11(3,16)                                           1 	(obj:0)
d11(3,17)                                           1 	(obj:0)
d11(3,19)                                           1 	(obj:0)
d11(3,20)                                           1 	(obj:0)
d11(3,22)                                           1 	(obj:0)
d11(3,23)                                           1 	(obj:0)
d11(3,25)                                           1 	(obj:0)
d11(3,26)                                           1 	(obj:0)
d11(3,28)                                           1 	(obj:0)
d11(3,31)                                           1 	(obj:0)
d11(3,32)                                           1 	(obj:0)
d11(3,34)                                           1 	(obj:0)
d11(3,35)                                           1 	(obj:0)
d11(3,37)                                           1 	(obj:0)
d11(3,38)                                           1 	(obj:0)
d12(2,5)                                            1 	(obj:0)
d12(2,6)                                            1 	(obj:0)
d12(2,8)                                            1 	(obj:0)
d12(2,9)                                            1 	(obj:0)
d12(2,11)                                           1 	(obj:0)
d12(2,12)                                           1 	(obj:0)
d12(3,15)                                           1 	(obj:0)
d12(3,18)                                           1 	(obj:0)
d12(3,21)                                           1 	(obj:0)
d12(3,24)                                           1 	(obj:0)
d12(3,27)                                           1 	(obj:0)
d12(3,30)                                           1 	(obj:0)
d12(3,33)                                           1 	(obj:0)
d12(3,36)                                           1 	(obj:0)
d12(3,39)                                           1 	(obj:0)
d21(1,1)                                            1 	(obj:0)
d21(2,4)                                            1 	(obj:0)
d21(2,5)                                            1 	(obj:0)
d21(3,13)                                           1 	(obj:0)
d21(3,14)                                           1 	(obj:0)
d21(3,15)                                           1 	(obj:0)
d21(3,16)                                           1 	(obj:0)
d21(3,17)                                           1 	(obj:0)
d21(3,19)                                           1 	(obj:0)
d21(3,22)                                           1 	(obj:0)
d21(3,23)                                           1 	(obj:0)
d21(3,25)                                           1 	(obj:0)
d21(3,31)                                           1 	(obj:0)
y2(3,24)                             960.592982999986 	(obj:0)
y2(3,27)                             960.592982999986 	(obj:0)
y2(3,30)                             960.592982999986 	(obj:0)
y2(3,33)                             960.592982999986 	(obj:0)
y2(3,36)                             960.592982999986 	(obj:0)
y2(3,39)                             960.592982999986 	(obj:0)
STE(1,1)                             1208.23399666671 	(obj:0)
STE(0,0)                                         7875 	(obj:0)
STE(1,2)                                         2205 	(obj:0)
STE(1,3)                             3422.45220333338 	(obj:0)
STE(2,4)                             578.233996666709 	(obj:0)
STE(2,5)                             1336.89572881666 	(obj:0)
STE(2,6)                             2377.81736266669 	(obj:0)
STE(2,7)                                         1575 	(obj:0)
STE(2,8)                             2333.66173214995 	(obj:0)
STE(2,9)                             3374.58336599999 	(obj:0)
STE(2,10)                            2792.45220333338 	(obj:0)
STE(2,11)                            3551.11393548333 	(obj:0)
STE(2,12)                            4592.03556933337 	(obj:0)
STE(3,13)                           -1048.53200666664 	(obj:0)
STE(3,14)                           -51.7660033332294 	(obj:0)
STE(3,15)                            860.797330516696 	(obj:0)
STE(3,16)                           -289.870274516692 	(obj:0)
STE(3,17)                            706.895728816598 	(obj:0)
STE(3,18)                            1619.45906266665 	(obj:0)
STE(3,19)                            751.051359333339 	(obj:0)
STE(3,20)                            1747.81736266669 	(obj:0)
STE(3,21)                            2660.38069651668 	(obj:0)
STE(3,22)                           -51.7660033333594 	(obj:0)
STE(3,23)                                         945 	(obj:0)
STE(3,24)                            1857.56333384999 	(obj:0)
STE(3,25)                            706.895728816599 	(obj:0)
STE(3,26)                            1703.66173215001 	(obj:0)
STE(3,27)                            2616.22506599994 	(obj:0)
STE(3,28)                            1747.81736266664 	(obj:0)
STE(3,29)                            2744.58336599999 	(obj:0)
STE(3,30)                            3657.14669984998 	(obj:0)
STE(3,31)                            1165.68620000003 	(obj:0)
STE(3,32)                            2162.45220333338 	(obj:0)
STE(3,33)                            3075.01553718337 	(obj:0)
STE(3,34)                            1924.34793214998 	(obj:0)
STE(3,35)                            2921.11393548339 	(obj:0)
STE(3,36)                            3833.67726933331 	(obj:0)
STE(3,37)                            2965.26956600002 	(obj:0)
STE(3,38)                            3962.03556933343 	(obj:0)
STE(3,39)                            4874.59890318335 	(obj:0)
y1(3,25)                             897.089403000015 	(obj:0)
y1(3,28)                             897.089403000015 	(obj:0)
y1(3,31)                             897.089403000015 	(obj:0)
y1(3,34)                             897.089403000015 	(obj:0)
y1(3,37)                             897.089403000015 	(obj:0)
BG(3)                                         3377.85 	(obj:10)
AVE(1)                               3199.95851117552 	(obj:0)
WB(2)                                3265.15049132519 	(obj:0)
AVE(2)                               3265.15049132519 	(obj:0)
WB(3)                                3291.35535332476 	(obj:0)
AVE(3)                               3291.35535332476 	(obj:0)
WG(1)                                3199.95851117571 	(obj:10)
BG(1)                                4806.46291739567 	(obj:10)
BG(2)                                2462.45264999976 	(obj:10)
y1(1,1)                              5433.08940299996 	(obj:0)
y1(1,2)                                          4536 	(obj:0)
y1(1,3)                              3440.29301699996 	(obj:0)
y1(3,13)                             897.089403000015 	(obj:0)
y1(3,16)                             897.089403000015 	(obj:0)
y1(3,19)                             897.089403000015 	(obj:0)
y1(3,22)                             897.089403000023 	(obj:0)
y2(2,5)                              798.591296999946 	(obj:0)
y2(2,6)                              1894.29827999998 	(obj:0)
y2(2,8)                              798.591296999946 	(obj:0)
y2(2,9)                              1894.29827999999 	(obj:0)
y2(2,11)                             798.591296999946 	(obj:0)
y2(2,12)                             1894.29827999999 	(obj:0)
y2(3,15)                             960.592982999986 	(obj:0)
y2(3,18)                             960.592982999986 	(obj:0)
y2(3,21)                             960.592982999986 	(obj:0)
